problems/csplib-prob015/SchursLemma-models/noch/O2/lingeling/model_1_4-3-15-solution000001.eprime-solution
language ESSENCE' 1.0

letting boxes_PartitionOccurrence_FirstIndex be [1, 3, 6; int(1..3)]
letting boxes_PartitionOccurrence_NumParts be 3
letting boxes_PartitionOccurrence_PartSizes be [5, 3, 7; int(1..3)]
letting boxes_PartitionOccurrence_WhichPart be [1, 1, 2, 1, 2, 3, 3, 1, 3, 3, 3, 3, 2, 3, 1; int(1..15)]
