problems/csplib-prob015/SchursLemma-models/noch/O2/lingeling/model_1_4-3-15-solution000001.solution
language Essence 1.3

letting boxes be partition({1, 2, 4, 8, 15}, {3, 5, 13}, {6, 7, 9, 10, 11, 12, 14})
